row=10;
column=10;
colour = 10;
Board=[|6,6,6,6,6,2,2,2,2,10|6,6,6,6,6,5,2,2,2,5|7,7,6,5,5,5,5,5,5,5|7,7,7,8,8,8,5,5,5,5|9,9,8,8,8,8,8,8,5,5|9,8,8,8,8,8,8,8,4,5|9,9,3,3,3,8,8,4,4,4|9,3,3,3,3,3,3,4,4,4|1,1,1,3,3,3,3,3,4,4|1,1,1,1,1,3,3,3,4,4|];
